Route #1: 25 23 47 26 48 46 16 24 51
Route #2: 49 34 20 4 36 6 37 41 11
Route #3: 17 18 3 39 35 40 14
Route #4: 5 12 44 27 29 8 7
Route #5: 42 33 38 32 28 13 9
Route #6: 15 43 30 19
Route #7: 22 45 21 2 10 50 31
cost 1051
